141
0 127 103 117 47 68 109 45 125 114 
18 112 98 2 130 12 40 93 138 14 
39 70 77 35 57 96 83 13 100 72 
67 29 33 118 126 75 92 123 60 132 
62 53 73 82 23 25 120 97 31 111 
124 11 104 41 43 1 10 119 131 84 
81 116 133 105 36 19 108 80 64 5 
22 9 121 90 55 79 16 26 74 50 
122 88 48 4 17 140 129 61 89 24 
27 94 58 34 107 102 106 3 71 101 
20 38 128 46 8 137 85 76 78 28 
42 95 65 37 21 66 51 134 110 52 
6 32 63 113 7 86 30 69 54 56 
44 135 49 139 15 91 136 115 99 87 
59 
